p cnf 606 1844
a 2 3 4 5 6 7 8 9 10 14 19 21 23 24 25 28 30 32 33 35 37 39 40 42 44 46 48 50 52 54 57 58 65 67 71 75 77 79 83 90 95 100 106 107 111 114 115 124 127 129 131 0
e 1 11 12 13 15 16 17 18 20 22 26 27 29 31 34 36 38 41 43 45 47 49 51 53 55 56 59 60 61 62 63 64 66 68 69 70 72 73 74 76 78 80 81 82 84 85 86 87 88 89 91 92 93 94 96 97 98 99 101 102 103 104 105 108 109 110 112 113 116 117 118 119 120 121 122 123 125 126 128 130 132 133 134 135 136 137 138 139 140 141 142 143 144 145 146 147 148 149 150 151 152 153 154 155 156 157 158 159 160 161 162 163 164 165 166 167 168 169 170 171 172 173 174 175 176 177 178 179 180 181 182 183 184 185 186 187 188 189 190 191 192 193 194 195 196 197 198 199 200 201 202 203 204 205 206 207 208 209 210 211 212 213 214 215 216 217 218 219 220 221 222 223 224 225 226 227 228 229 230 231 232 233 234 235 236 237 238 239 240 241 242 243 244 245 246 247 248 249 250 251 252 253 254 255 256 257 258 259 260 261 262 263 264 265 266 267 268 269 270 271 272 273 274 275 276 277 278 279 280 281 282 283 284 285 286 287 288 289 290 291 292 293 294 295 296 297 298 299 300 301 302 303 304 305 306 307 308 309 310 311 312 313 314 315 316 317 318 319 320 321 322 323 324 325 326 327 328 329 330 331 332 333 334 335 336 337 338 339 340 341 342 343 344 345 346 347 348 349 350 351 352 353 354 355 356 357 358 359 360 361 362 363 364 365 366 367 368 369 370 371 372 373 374 375 376 377 378 379 380 381 382 383 384 385 386 387 388 389 390 391 392 393 394 395 396 397 398 399 400 401 402 403 404 405 406 407 408 409 410 411 412 413 414 415 416 417 418 419 420 421 422 423 424 425 426 427 428 429 430 431 432 433 434 435 436 437 438 439 440 441 442 443 444 445 446 447 448 449 450 451 452 453 454 455 456 457 458 459 460 461 462 463 464 465 466 467 468 469 470 471 472 473 474 475 476 477 478 479 480 481 482 483 484 485 486 487 488 489 490 491 492 493 494 495 496 497 498 499 500 501 502 503 504 505 506 507 508 509 510 511 512 513 514 515 516 517 518 519 520 521 522 523 524 525 526 527 528 529 530 531 532 533 534 535 536 537 538 539 540 541 542 543 544 545 546 547 548 549 550 551 552 553 554 555 556 557 558 559 560 561 562 563 564 565 566 567 568 569 570 571 572 573 574 575 576 577 578 579 580 581 582 583 584 585 586 587 588 589 590 591 592 593 594 595 596 597 598 599 600 601 602 603 604 605 606 0
1 0
9 -11 0
10 -11 0
-9 -10 11 0
9 -12 0
-10 -12 0
-9 10 12 0
9 13 0
-11 13 0
-12 13 0
-9 11 12 -13 0
-14 15 0
14 15 0
8 -16 0
13 -16 0
15 -16 0
-8 -13 -15 16 0
-8 -17 0
13 -17 0
8 -13 17 0
-16 18 0
-17 18 0
16 17 -18 0
-19 20 0
19 20 0
-21 22 0
21 22 0
24 -26 0
-25 -26 0
-24 25 26 0
24 27 0
-26 27 0
-24 26 -27 0
-28 29 0
28 29 0
29 -31 0
30 -31 0
-29 -30 31 0
-33 34 0
33 34 0
34 -36 0
-35 -36 0
-34 35 36 0
34 -38 0
35 -38 0
37 -38 0
-34 -35 -37 38 0
34 -41 0
35 -41 0
-37 -41 0
39 -41 0
40 -41 0
-34 -35 37 -39 -40 41 0
34 -43 0
35 -43 0
-37 -43 0
39 -43 0
-40 -43 0
-42 -43 0
-34 -35 37 -39 40 42 43 0
34 -45 0
35 -45 0
-37 -45 0
-39 -45 0
-44 -45 0
-34 -35 37 39 44 45 0
34 -47 0
35 -47 0
-37 -47 0
-39 -47 0
44 -47 0
46 -47 0
-34 -35 37 39 -44 -46 47 0
34 -49 0
35 -49 0
-37 -49 0
39 -49 0
-40 -49 0
42 -49 0
48 -49 0
-34 -35 37 -39 40 -42 -48 49 0
34 -51 0
35 -51 0
-37 -51 0
39 -51 0
-40 -51 0
42 -51 0
-48 -51 0
50 -51 0
-34 -35 37 -39 40 -42 48 -50 51 0
-52 53 0
52 53 0
34 -55 0
35 -55 0
-37 -55 0
-39 -55 0
44 -55 0
-46 -55 0
53 -55 0
54 -55 0
-34 -35 37 39 -44 46 -53 -54 55 0
34 -56 0
35 -56 0
-37 -56 0
-39 -56 0
44 -56 0
-46 -56 0
53 -56 0
-54 -56 0
-34 -35 37 39 -44 46 -53 54 56 0
57 -59 0
58 -59 0
-57 -58 59 0
57 -60 0
-58 -60 0
-57 58 60 0
57 61 0
-59 61 0
-60 61 0
-57 59 60 -61 0
34 -62 0
35 -62 0
-37 -62 0
39 -62 0
-40 -62 0
42 -62 0
-48 -62 0
-50 -62 0
61 -62 0
-34 -35 37 -39 40 -42 48 50 -61 62 0
-36 63 0
-38 63 0
-41 63 0
-43 63 0
-45 63 0
-47 63 0
-49 63 0
-51 63 0
-55 63 0
-56 63 0
-62 63 0
36 38 41 43 45 47 49 51 55 56 62 -63 0
29 -64 0
-30 -64 0
-32 -64 0
63 -64 0
-29 30 32 -63 64 0
29 -66 0
-30 -66 0
32 -66 0
-65 -66 0
-29 30 -32 65 66 0
29 -68 0
-30 -68 0
32 -68 0
65 -68 0
-67 -68 0
-29 30 -32 -65 67 68 0
29 -69 0
-30 -69 0
32 -69 0
65 -69 0
67 -69 0
-29 30 -32 -65 -67 69 0
-64 70 0
-66 70 0
-68 70 0
-69 70 0
64 66 68 69 -70 0
70 -72 0
71 -72 0
-70 -71 72 0
70 -73 0
-71 -73 0
-70 71 73 0
-31 74 0
-72 74 0
-73 74 0
31 72 73 -74 0
-75 76 0
75 76 0
23 -78 0
27 -78 0
74 -78 0
76 -78 0
77 -78 0
-23 -27 -74 -76 -77 78 0
-79 80 0
79 80 0
23 -81 0
27 -81 0
74 -81 0
76 -81 0
-77 -81 0
80 -81 0
-23 -27 -74 -76 77 -80 81 0
-78 82 0
-81 82 0
78 81 -82 0
82 -84 0
83 -84 0
-82 -83 84 0
82 -85 0
-83 -85 0
-82 83 85 0
23 86 0
-84 86 0
-85 86 0
-23 84 85 -86 0
7 -87 0
18 -87 0
20 -87 0
22 -87 0
86 -87 0
-7 -18 -20 -22 -86 87 0
-7 -88 0
18 -88 0
20 -88 0
22 -88 0
7 -18 -20 -22 88 0
-87 89 0
-88 89 0
87 88 -89 0
90 91 0
-90 91 0
6 -92 0
89 -92 0
91 -92 0
-6 -89 -91 92 0
-6 -93 0
89 -93 0
6 -89 93 0
-92 94 0
-93 94 0
92 93 -94 0
95 96 0
-95 96 0
5 -97 0
94 -97 0
96 -97 0
-5 -94 -96 97 0
-5 -98 0
94 -98 0
5 -94 98 0
-97 99 0
-98 99 0
97 98 -99 0
100 101 0
-100 101 0
4 -102 0
99 -102 0
101 -102 0
-4 -99 -101 102 0
-4 -103 0
99 -103 0
4 -99 103 0
-102 104 0
-103 104 0
102 103 -104 0
3 -105 0
104 -105 0
-3 -104 105 0
107 -108 0
99 -108 0
101 -108 0
-107 -99 -101 108 0
-107 -109 0
99 -109 0
107 -99 109 0
-108 110 0
-109 110 0
108 109 -110 0
111 112 0
-111 112 0
106 -113 0
110 -113 0
112 -113 0
-106 -110 -112 113 0
115 116 0
-115 116 0
114 -117 0
110 -117 0
116 -117 0
-114 -110 -116 117 0
-114 -118 0
110 -118 0
114 -110 118 0
-117 119 0
-118 119 0
117 118 -119 0
-106 -120 0
119 -120 0
106 -119 120 0
-113 121 0
-120 121 0
113 120 -121 0
-3 -122 0
121 -122 0
3 -121 122 0
-105 123 0
-122 123 0
105 122 -123 0
124 125 0
-124 125 0
2 -126 0
123 -126 0
125 -126 0
-2 -123 -125 126 0
127 -128 0
123 -128 0
125 -128 0
-127 -123 -125 128 0
129 -130 0
123 -130 0
125 -130 0
-129 -123 -125 130 0
131 -132 0
123 -132 0
125 -132 0
-131 -123 -125 132 0
-131 -133 0
123 -133 0
131 -123 133 0
-132 134 0
-133 134 0
132 133 -134 0
-129 -135 0
134 -135 0
129 -134 135 0
-130 136 0
-135 136 0
130 135 -136 0
-127 -137 0
136 -137 0
127 -136 137 0
-128 138 0
-137 138 0
128 137 -138 0
-2 -139 0
138 -139 0
2 -138 139 0
-126 140 0
-139 140 0
126 139 -140 0
-14 141 0
14 141 0
8 -142 0
141 -142 0
-8 -141 142 0
-142 143 0
8 143 0
142 -8 -143 0
143 -144 0
-23 -144 0
-143 23 144 0
143 -145 0
29 -145 0
30 -145 0
-143 -29 -30 145 0
143 -146 0
29 -146 0
-30 -146 0
32 -146 0
65 -146 0
-67 -146 0
-143 -29 30 -32 -65 67 146 0
143 -147 0
29 -147 0
-30 -147 0
32 -147 0
65 -147 0
67 -147 0
-143 -29 30 -32 -65 -67 147 0
143 -148 0
29 -148 0
-30 -148 0
32 -148 0
-65 -148 0
-143 -29 30 -32 65 148 0
143 -149 0
33 -149 0
-143 -33 149 0
143 -150 0
-33 -150 0
-143 33 150 0
-149 151 0
-150 151 0
149 150 -151 0
-36 152 0
-38 152 0
-41 152 0
-43 152 0
-45 152 0
-47 152 0
-49 152 0
-51 152 0
36 38 41 43 45 47 49 51 -152 0
151 -153 0
152 -153 0
-151 -152 153 0
151 -154 0
34 -154 0
35 -154 0
-37 -154 0
39 -154 0
-40 -154 0
42 -154 0
-48 -154 0
-50 -154 0
61 -154 0
-151 -34 -35 37 -39 40 -42 48 50 -61 154 0
-55 155 0
-56 155 0
55 56 -155 0
151 -156 0
155 -156 0
-151 -155 156 0
-153 157 0
-154 157 0
-156 157 0
153 154 156 -157 0
157 -158 0
29 -158 0
-30 -158 0
-32 -158 0
63 -158 0
-157 -29 30 32 -63 158 0
-146 159 0
-147 159 0
-148 159 0
-158 159 0
146 147 148 158 -159 0
159 -160 0
70 -160 0
71 -160 0
-159 -70 -71 160 0
159 -161 0
70 -161 0
-71 -161 0
-159 -70 71 161 0
-145 162 0
-160 162 0
-161 162 0
145 160 161 -162 0
162 -163 0
23 -163 0
27 -163 0
74 -163 0
76 -163 0
77 -163 0
-162 -23 -27 -74 -76 -77 163 0
162 -164 0
23 -164 0
27 -164 0
74 -164 0
76 -164 0
-77 -164 0
80 -164 0
-162 -23 -27 -74 -76 77 -80 164 0
-163 165 0
-164 165 0
163 164 -165 0
-84 166 0
-85 166 0
84 85 -166 0
165 -167 0
166 -167 0
-165 -166 167 0
-144 168 0
-167 168 0
144 167 -168 0
7 -169 0
168 -169 0
-7 -168 169 0
-7 -170 0
143 -170 0
7 -143 170 0
-169 171 0
-170 171 0
169 170 -171 0
171 -172 0
-90 -172 0
-171 90 172 0
171 -173 0
90 -173 0
-171 -90 173 0
-172 174 0
-173 174 0
172 173 -174 0
6 -175 0
174 -175 0
-6 -174 175 0
-6 -176 0
171 -176 0
6 -171 176 0
-175 177 0
-176 177 0
175 176 -177 0
177 -178 0
-95 -178 0
-177 95 178 0
177 -179 0
95 -179 0
-177 -95 179 0
-178 180 0
-179 180 0
178 179 -180 0
5 -181 0
180 -181 0
-5 -180 181 0
-5 -182 0
177 -182 0
5 -177 182 0
-181 183 0
-182 183 0
181 182 -183 0
183 -184 0
-100 -184 0
-183 100 184 0
183 -185 0
100 -185 0
-183 -100 185 0
-184 186 0
-185 186 0
184 185 -186 0
4 -187 0
186 -187 0
-4 -186 187 0
-4 -188 0
183 -188 0
4 -183 188 0
-187 189 0
-188 189 0
187 188 -189 0
3 -190 0
189 -190 0
-3 -189 190 0
107 -191 0
186 -191 0
-107 -186 191 0
-107 -192 0
183 -192 0
107 -183 192 0
-191 193 0
-192 193 0
191 192 -193 0
193 -194 0
-111 -194 0
-193 111 194 0
193 -195 0
111 -195 0
-193 -111 195 0
-194 196 0
-195 196 0
194 195 -196 0
106 -197 0
196 -197 0
-106 -196 197 0
193 -198 0
-115 -198 0
-193 115 198 0
193 -199 0
115 -199 0
-193 -115 199 0
-198 200 0
-199 200 0
198 199 -200 0
114 -201 0
200 -201 0
-114 -200 201 0
-114 -202 0
193 -202 0
114 -193 202 0
-201 203 0
-202 203 0
201 202 -203 0
-106 -204 0
203 -204 0
106 -203 204 0
-197 205 0
-204 205 0
197 204 -205 0
-3 -206 0
205 -206 0
3 -205 206 0
-190 207 0
-206 207 0
190 206 -207 0
207 -208 0
-124 -208 0
-207 124 208 0
207 -209 0
124 -209 0
-207 -124 209 0
-208 210 0
-209 210 0
208 209 -210 0
2 -211 0
210 -211 0
-2 -210 211 0
127 -212 0
210 -212 0
-127 -210 212 0
129 -213 0
210 -213 0
-129 -210 213 0
131 -214 0
210 -214 0
-131 -210 214 0
-131 -215 0
207 -215 0
131 -207 215 0
-214 216 0
-215 216 0
214 215 -216 0
-129 -217 0
216 -217 0
129 -216 217 0
-213 218 0
-217 218 0
213 217 -218 0
-127 -219 0
218 -219 0
127 -218 219 0
-212 220 0
-219 220 0
212 219 -220 0
-2 -221 0
220 -221 0
2 -220 221 0
-211 222 0
-221 222 0
211 221 -222 0
-14 223 0
14 223 0
8 -224 0
223 -224 0
-8 -223 224 0
-224 225 0
8 225 0
224 -8 -225 0
225 -226 0
-23 -226 0
-225 23 226 0
225 -227 0
29 -227 0
30 -227 0
-225 -29 -30 227 0
225 -228 0
29 -228 0
-30 -228 0
32 -228 0
65 -228 0
-67 -228 0
-225 -29 30 -32 -65 67 228 0
225 -229 0
29 -229 0
-30 -229 0
32 -229 0
65 -229 0
67 -229 0
-225 -29 30 -32 -65 -67 229 0
225 -230 0
29 -230 0
-30 -230 0
32 -230 0
-65 -230 0
-225 -29 30 -32 65 230 0
225 -231 0
33 -231 0
-225 -33 231 0
225 -232 0
-33 -232 0
-225 33 232 0
-231 233 0
-232 233 0
231 232 -233 0
-36 234 0
-38 234 0
-41 234 0
-43 234 0
-45 234 0
-47 234 0
-49 234 0
-51 234 0
36 38 41 43 45 47 49 51 -234 0
233 -235 0
234 -235 0
-233 -234 235 0
233 -236 0
34 -236 0
35 -236 0
-37 -236 0
39 -236 0
-40 -236 0
42 -236 0
-48 -236 0
-50 -236 0
61 -236 0
-233 -34 -35 37 -39 40 -42 48 50 -61 236 0
233 -237 0
155 -237 0
-233 -155 237 0
-235 238 0
-236 238 0
-237 238 0
235 236 237 -238 0
238 -239 0
29 -239 0
-30 -239 0
-32 -239 0
63 -239 0
-238 -29 30 32 -63 239 0
-228 240 0
-229 240 0
-230 240 0
-239 240 0
228 229 230 239 -240 0
240 -241 0
70 -241 0
71 -241 0
-240 -70 -71 241 0
240 -242 0
70 -242 0
-71 -242 0
-240 -70 71 242 0
-227 243 0
-241 243 0
-242 243 0
227 241 242 -243 0
243 -244 0
23 -244 0
27 -244 0
74 -244 0
76 -244 0
77 -244 0
-243 -23 -27 -74 -76 -77 244 0
243 -245 0
23 -245 0
27 -245 0
74 -245 0
76 -245 0
-77 -245 0
80 -245 0
-243 -23 -27 -74 -76 77 -80 245 0
-244 246 0
-245 246 0
244 245 -246 0
246 -247 0
166 -247 0
-246 -166 247 0
-226 248 0
-247 248 0
226 247 -248 0
7 -249 0
248 -249 0
-7 -248 249 0
-7 -250 0
225 -250 0
7 -225 250 0
-249 251 0
-250 251 0
249 250 -251 0
251 -252 0
-90 -252 0
-251 90 252 0
251 -253 0
90 -253 0
-251 -90 253 0
-252 254 0
-253 254 0
252 253 -254 0
6 -255 0
254 -255 0
-6 -254 255 0
-6 -256 0
251 -256 0
6 -251 256 0
-255 257 0
-256 257 0
255 256 -257 0
257 -258 0
-95 -258 0
-257 95 258 0
257 -259 0
95 -259 0
-257 -95 259 0
-258 260 0
-259 260 0
258 259 -260 0
5 -261 0
260 -261 0
-5 -260 261 0
-5 -262 0
257 -262 0
5 -257 262 0
-261 263 0
-262 263 0
261 262 -263 0
263 -264 0
-100 -264 0
-263 100 264 0
263 -265 0
100 -265 0
-263 -100 265 0
-264 266 0
-265 266 0
264 265 -266 0
4 -267 0
266 -267 0
-4 -266 267 0
-4 -268 0
263 -268 0
4 -263 268 0
-267 269 0
-268 269 0
267 268 -269 0
3 -270 0
269 -270 0
-3 -269 270 0
107 -271 0
266 -271 0
-107 -266 271 0
-107 -272 0
263 -272 0
107 -263 272 0
-271 273 0
-272 273 0
271 272 -273 0
273 -274 0
-111 -274 0
-273 111 274 0
273 -275 0
111 -275 0
-273 -111 275 0
-274 276 0
-275 276 0
274 275 -276 0
106 -277 0
276 -277 0
-106 -276 277 0
273 -278 0
-115 -278 0
-273 115 278 0
273 -279 0
115 -279 0
-273 -115 279 0
-278 280 0
-279 280 0
278 279 -280 0
114 -281 0
280 -281 0
-114 -280 281 0
-114 -282 0
273 -282 0
114 -273 282 0
-281 283 0
-282 283 0
281 282 -283 0
-106 -284 0
283 -284 0
106 -283 284 0
-277 285 0
-284 285 0
277 284 -285 0
-3 -286 0
285 -286 0
3 -285 286 0
-270 287 0
-286 287 0
270 286 -287 0
287 -288 0
-124 -288 0
-287 124 288 0
287 -289 0
124 -289 0
-287 -124 289 0
-288 290 0
-289 290 0
288 289 -290 0
2 -291 0
290 -291 0
-2 -290 291 0
127 -292 0
290 -292 0
-127 -290 292 0
129 -293 0
290 -293 0
-129 -290 293 0
131 -294 0
290 -294 0
-131 -290 294 0
-131 -295 0
287 -295 0
131 -287 295 0
-294 296 0
-295 296 0
294 295 -296 0
-129 -297 0
296 -297 0
129 -296 297 0
-293 298 0
-297 298 0
293 297 -298 0
-127 -299 0
298 -299 0
127 -298 299 0
-292 300 0
-299 300 0
292 299 -300 0
-2 -301 0
300 -301 0
2 -300 301 0
-291 302 0
-301 302 0
291 301 -302 0
310 -312 0
311 -312 0
-310 -311 312 0
310 -313 0
-311 -313 0
-310 311 313 0
310 314 0
-312 314 0
-313 314 0
-310 312 313 -314 0
-315 316 0
315 316 0
309 -317 0
314 -317 0
316 -317 0
-309 -314 -316 317 0
-309 -318 0
314 -318 0
309 -314 318 0
-317 319 0
-318 319 0
317 318 -319 0
-320 321 0
320 321 0
-322 323 0
322 323 0
325 -327 0
-326 -327 0
-325 326 327 0
325 328 0
-327 328 0
-325 327 -328 0
-329 330 0
329 330 0
330 -332 0
331 -332 0
-330 -331 332 0
-334 335 0
334 335 0
335 -337 0
-336 -337 0
-335 336 337 0
335 -339 0
336 -339 0
338 -339 0
-335 -336 -338 339 0
335 -342 0
336 -342 0
-338 -342 0
340 -342 0
341 -342 0
-335 -336 338 -340 -341 342 0
335 -344 0
336 -344 0
-338 -344 0
340 -344 0
-341 -344 0
-343 -344 0
-335 -336 338 -340 341 343 344 0
335 -346 0
336 -346 0
-338 -346 0
-340 -346 0
-345 -346 0
-335 -336 338 340 345 346 0
335 -348 0
336 -348 0
-338 -348 0
-340 -348 0
345 -348 0
347 -348 0
-335 -336 338 340 -345 -347 348 0
335 -350 0
336 -350 0
-338 -350 0
340 -350 0
-341 -350 0
343 -350 0
349 -350 0
-335 -336 338 -340 341 -343 -349 350 0
335 -352 0
336 -352 0
-338 -352 0
340 -352 0
-341 -352 0
343 -352 0
-349 -352 0
351 -352 0
-335 -336 338 -340 341 -343 349 -351 352 0
-353 354 0
353 354 0
335 -356 0
336 -356 0
-338 -356 0
-340 -356 0
345 -356 0
-347 -356 0
354 -356 0
355 -356 0
-335 -336 338 340 -345 347 -354 -355 356 0
335 -357 0
336 -357 0
-338 -357 0
-340 -357 0
345 -357 0
-347 -357 0
354 -357 0
-355 -357 0
-335 -336 338 340 -345 347 -354 355 357 0
358 -360 0
359 -360 0
-358 -359 360 0
358 -361 0
-359 -361 0
-358 359 361 0
358 362 0
-360 362 0
-361 362 0
-358 360 361 -362 0
335 -363 0
336 -363 0
-338 -363 0
340 -363 0
-341 -363 0
343 -363 0
-349 -363 0
-351 -363 0
362 -363 0
-335 -336 338 -340 341 -343 349 351 -362 363 0
-337 364 0
-339 364 0
-342 364 0
-344 364 0
-346 364 0
-348 364 0
-350 364 0
-352 364 0
-356 364 0
-357 364 0
-363 364 0
337 339 342 344 346 348 350 352 356 357 363 -364 0
330 -365 0
-331 -365 0
-333 -365 0
364 -365 0
-330 331 333 -364 365 0
330 -367 0
-331 -367 0
333 -367 0
-366 -367 0
-330 331 -333 366 367 0
330 -369 0
-331 -369 0
333 -369 0
366 -369 0
-368 -369 0
-330 331 -333 -366 368 369 0
330 -370 0
-331 -370 0
333 -370 0
366 -370 0
368 -370 0
-330 331 -333 -366 -368 370 0
-365 371 0
-367 371 0
-369 371 0
-370 371 0
365 367 369 370 -371 0
371 -373 0
372 -373 0
-371 -372 373 0
371 -374 0
-372 -374 0
-371 372 374 0
-332 375 0
-373 375 0
-374 375 0
332 373 374 -375 0
-376 377 0
376 377 0
324 -379 0
328 -379 0
375 -379 0
377 -379 0
378 -379 0
-324 -328 -375 -377 -378 379 0
-380 381 0
380 381 0
324 -382 0
328 -382 0
375 -382 0
377 -382 0
-378 -382 0
381 -382 0
-324 -328 -375 -377 378 -381 382 0
-379 383 0
-382 383 0
379 382 -383 0
383 -385 0
384 -385 0
-383 -384 385 0
383 -386 0
-384 -386 0
-383 384 386 0
324 387 0
-385 387 0
-386 387 0
-324 385 386 -387 0
308 -388 0
319 -388 0
321 -388 0
323 -388 0
387 -388 0
-308 -319 -321 -323 -387 388 0
-308 -389 0
319 -389 0
321 -389 0
323 -389 0
308 -319 -321 -323 389 0
-388 390 0
-389 390 0
388 389 -390 0
391 392 0
-391 392 0
307 -393 0
390 -393 0
392 -393 0
-307 -390 -392 393 0
-307 -394 0
390 -394 0
307 -390 394 0
-393 395 0
-394 395 0
393 394 -395 0
396 397 0
-396 397 0
306 -398 0
395 -398 0
397 -398 0
-306 -395 -397 398 0
-306 -399 0
395 -399 0
306 -395 399 0
-398 400 0
-399 400 0
398 399 -400 0
401 402 0
-401 402 0
305 -403 0
400 -403 0
402 -403 0
-305 -400 -402 403 0
-305 -404 0
400 -404 0
305 -400 404 0
-403 405 0
-404 405 0
403 404 -405 0
304 -406 0
405 -406 0
-304 -405 406 0
408 -409 0
400 -409 0
402 -409 0
-408 -400 -402 409 0
-408 -410 0
400 -410 0
408 -400 410 0
-409 411 0
-410 411 0
409 410 -411 0
412 413 0
-412 413 0
407 -414 0
411 -414 0
413 -414 0
-407 -411 -413 414 0
416 417 0
-416 417 0
415 -418 0
411 -418 0
417 -418 0
-415 -411 -417 418 0
-415 -419 0
411 -419 0
415 -411 419 0
-418 420 0
-419 420 0
418 419 -420 0
-407 -421 0
420 -421 0
407 -420 421 0
-414 422 0
-421 422 0
414 421 -422 0
-304 -423 0
422 -423 0
304 -422 423 0
-406 424 0
-423 424 0
406 423 -424 0
425 426 0
-425 426 0
303 -427 0
424 -427 0
426 -427 0
-303 -424 -426 427 0
428 -429 0
424 -429 0
426 -429 0
-428 -424 -426 429 0
430 -431 0
424 -431 0
426 -431 0
-430 -424 -426 431 0
432 -433 0
424 -433 0
426 -433 0
-432 -424 -426 433 0
-432 -434 0
424 -434 0
432 -424 434 0
-433 435 0
-434 435 0
433 434 -435 0
-430 -436 0
435 -436 0
430 -435 436 0
-431 437 0
-436 437 0
431 436 -437 0
-428 -438 0
437 -438 0
428 -437 438 0
-429 439 0
-438 439 0
429 438 -439 0
-303 -440 0
439 -440 0
303 -439 440 0
-427 441 0
-440 441 0
427 440 -441 0
-315 442 0
315 442 0
309 -443 0
442 -443 0
-309 -442 443 0
-443 444 0
309 444 0
443 -309 -444 0
444 -445 0
-324 -445 0
-444 324 445 0
444 -446 0
330 -446 0
331 -446 0
-444 -330 -331 446 0
444 -447 0
330 -447 0
-331 -447 0
333 -447 0
366 -447 0
-368 -447 0
-444 -330 331 -333 -366 368 447 0
444 -448 0
330 -448 0
-331 -448 0
333 -448 0
366 -448 0
368 -448 0
-444 -330 331 -333 -366 -368 448 0
444 -449 0
330 -449 0
-331 -449 0
333 -449 0
-366 -449 0
-444 -330 331 -333 366 449 0
444 -450 0
334 -450 0
-444 -334 450 0
444 -451 0
-334 -451 0
-444 334 451 0
-450 452 0
-451 452 0
450 451 -452 0
-337 453 0
-339 453 0
-342 453 0
-344 453 0
-346 453 0
-348 453 0
-350 453 0
-352 453 0
337 339 342 344 346 348 350 352 -453 0
452 -454 0
453 -454 0
-452 -453 454 0
452 -455 0
335 -455 0
336 -455 0
-338 -455 0
340 -455 0
-341 -455 0
343 -455 0
-349 -455 0
-351 -455 0
362 -455 0
-452 -335 -336 338 -340 341 -343 349 351 -362 455 0
-356 456 0
-357 456 0
356 357 -456 0
452 -457 0
456 -457 0
-452 -456 457 0
-454 458 0
-455 458 0
-457 458 0
454 455 457 -458 0
458 -459 0
330 -459 0
-331 -459 0
-333 -459 0
364 -459 0
-458 -330 331 333 -364 459 0
-447 460 0
-448 460 0
-449 460 0
-459 460 0
447 448 449 459 -460 0
460 -461 0
371 -461 0
372 -461 0
-460 -371 -372 461 0
460 -462 0
371 -462 0
-372 -462 0
-460 -371 372 462 0
-446 463 0
-461 463 0
-462 463 0
446 461 462 -463 0
463 -464 0
324 -464 0
328 -464 0
375 -464 0
377 -464 0
378 -464 0
-463 -324 -328 -375 -377 -378 464 0
463 -465 0
324 -465 0
328 -465 0
375 -465 0
377 -465 0
-378 -465 0
381 -465 0
-463 -324 -328 -375 -377 378 -381 465 0
-464 466 0
-465 466 0
464 465 -466 0
-385 467 0
-386 467 0
385 386 -467 0
466 -468 0
467 -468 0
-466 -467 468 0
-445 469 0
-468 469 0
445 468 -469 0
308 -470 0
469 -470 0
-308 -469 470 0
-308 -471 0
444 -471 0
308 -444 471 0
-470 472 0
-471 472 0
470 471 -472 0
472 -473 0
-391 -473 0
-472 391 473 0
472 -474 0
391 -474 0
-472 -391 474 0
-473 475 0
-474 475 0
473 474 -475 0
307 -476 0
475 -476 0
-307 -475 476 0
-307 -477 0
472 -477 0
307 -472 477 0
-476 478 0
-477 478 0
476 477 -478 0
478 -479 0
-396 -479 0
-478 396 479 0
478 -480 0
396 -480 0
-478 -396 480 0
-479 481 0
-480 481 0
479 480 -481 0
306 -482 0
481 -482 0
-306 -481 482 0
-306 -483 0
478 -483 0
306 -478 483 0
-482 484 0
-483 484 0
482 483 -484 0
484 -485 0
-401 -485 0
-484 401 485 0
484 -486 0
401 -486 0
-484 -401 486 0
-485 487 0
-486 487 0
485 486 -487 0
305 -488 0
487 -488 0
-305 -487 488 0
-305 -489 0
484 -489 0
305 -484 489 0
-488 490 0
-489 490 0
488 489 -490 0
304 -491 0
490 -491 0
-304 -490 491 0
408 -492 0
487 -492 0
-408 -487 492 0
-408 -493 0
484 -493 0
408 -484 493 0
-492 494 0
-493 494 0
492 493 -494 0
494 -495 0
-412 -495 0
-494 412 495 0
494 -496 0
412 -496 0
-494 -412 496 0
-495 497 0
-496 497 0
495 496 -497 0
407 -498 0
497 -498 0
-407 -497 498 0
494 -499 0
-416 -499 0
-494 416 499 0
494 -500 0
416 -500 0
-494 -416 500 0
-499 501 0
-500 501 0
499 500 -501 0
415 -502 0
501 -502 0
-415 -501 502 0
-415 -503 0
494 -503 0
415 -494 503 0
-502 504 0
-503 504 0
502 503 -504 0
-407 -505 0
504 -505 0
407 -504 505 0
-498 506 0
-505 506 0
498 505 -506 0
-304 -507 0
506 -507 0
304 -506 507 0
-491 508 0
-507 508 0
491 507 -508 0
508 -509 0
-425 -509 0
-508 425 509 0
508 -510 0
425 -510 0
-508 -425 510 0
-509 511 0
-510 511 0
509 510 -511 0
303 -512 0
511 -512 0
-303 -511 512 0
428 -513 0
511 -513 0
-428 -511 513 0
430 -514 0
511 -514 0
-430 -511 514 0
432 -515 0
511 -515 0
-432 -511 515 0
-432 -516 0
508 -516 0
432 -508 516 0
-515 517 0
-516 517 0
515 516 -517 0
-430 -518 0
517 -518 0
430 -517 518 0
-514 519 0
-518 519 0
514 518 -519 0
-428 -520 0
519 -520 0
428 -519 520 0
-513 521 0
-520 521 0
513 520 -521 0
-303 -522 0
521 -522 0
303 -521 522 0
-512 523 0
-522 523 0
512 522 -523 0
-315 524 0
315 524 0
309 -525 0
524 -525 0
-309 -524 525 0
-525 526 0
309 526 0
525 -309 -526 0
526 -527 0
-324 -527 0
-526 324 527 0
526 -528 0
330 -528 0
331 -528 0
-526 -330 -331 528 0
526 -529 0
330 -529 0
-331 -529 0
333 -529 0
366 -529 0
-368 -529 0
-526 -330 331 -333 -366 368 529 0
526 -530 0
330 -530 0
-331 -530 0
333 -530 0
366 -530 0
368 -530 0
-526 -330 331 -333 -366 -368 530 0
526 -531 0
330 -531 0
-331 -531 0
333 -531 0
-366 -531 0
-526 -330 331 -333 366 531 0
526 -532 0
334 -532 0
-526 -334 532 0
526 -533 0
-334 -533 0
-526 334 533 0
-532 534 0
-533 534 0
532 533 -534 0
-337 535 0
-339 535 0
-342 535 0
-344 535 0
-346 535 0
-348 535 0
-350 535 0
-352 535 0
337 339 342 344 346 348 350 352 -535 0
534 -536 0
535 -536 0
-534 -535 536 0
534 -537 0
335 -537 0
336 -537 0
-338 -537 0
340 -537 0
-341 -537 0
343 -537 0
-349 -537 0
-351 -537 0
362 -537 0
-534 -335 -336 338 -340 341 -343 349 351 -362 537 0
534 -538 0
456 -538 0
-534 -456 538 0
-536 539 0
-537 539 0
-538 539 0
536 537 538 -539 0
539 -540 0
330 -540 0
-331 -540 0
-333 -540 0
364 -540 0
-539 -330 331 333 -364 540 0
-529 541 0
-530 541 0
-531 541 0
-540 541 0
529 530 531 540 -541 0
541 -542 0
371 -542 0
372 -542 0
-541 -371 -372 542 0
541 -543 0
371 -543 0
-372 -543 0
-541 -371 372 543 0
-528 544 0
-542 544 0
-543 544 0
528 542 543 -544 0
544 -545 0
324 -545 0
328 -545 0
375 -545 0
377 -545 0
378 -545 0
-544 -324 -328 -375 -377 -378 545 0
544 -546 0
324 -546 0
328 -546 0
375 -546 0
377 -546 0
-378 -546 0
381 -546 0
-544 -324 -328 -375 -377 378 -381 546 0
-545 547 0
-546 547 0
545 546 -547 0
547 -548 0
467 -548 0
-547 -467 548 0
-527 549 0
-548 549 0
527 548 -549 0
308 -550 0
549 -550 0
-308 -549 550 0
-308 -551 0
526 -551 0
308 -526 551 0
-550 552 0
-551 552 0
550 551 -552 0
552 -553 0
-391 -553 0
-552 391 553 0
552 -554 0
391 -554 0
-552 -391 554 0
-553 555 0
-554 555 0
553 554 -555 0
307 -556 0
555 -556 0
-307 -555 556 0
-307 -557 0
552 -557 0
307 -552 557 0
-556 558 0
-557 558 0
556 557 -558 0
558 -559 0
-396 -559 0
-558 396 559 0
558 -560 0
396 -560 0
-558 -396 560 0
-559 561 0
-560 561 0
559 560 -561 0
306 -562 0
561 -562 0
-306 -561 562 0
-306 -563 0
558 -563 0
306 -558 563 0
-562 564 0
-563 564 0
562 563 -564 0
564 -565 0
-401 -565 0
-564 401 565 0
564 -566 0
401 -566 0
-564 -401 566 0
-565 567 0
-566 567 0
565 566 -567 0
305 -568 0
567 -568 0
-305 -567 568 0
-305 -569 0
564 -569 0
305 -564 569 0
-568 570 0
-569 570 0
568 569 -570 0
304 -571 0
570 -571 0
-304 -570 571 0
408 -572 0
567 -572 0
-408 -567 572 0
-408 -573 0
564 -573 0
408 -564 573 0
-572 574 0
-573 574 0
572 573 -574 0
574 -575 0
-412 -575 0
-574 412 575 0
574 -576 0
412 -576 0
-574 -412 576 0
-575 577 0
-576 577 0
575 576 -577 0
407 -578 0
577 -578 0
-407 -577 578 0
574 -579 0
-416 -579 0
-574 416 579 0
574 -580 0
416 -580 0
-574 -416 580 0
-579 581 0
-580 581 0
579 580 -581 0
415 -582 0
581 -582 0
-415 -581 582 0
-415 -583 0
574 -583 0
415 -574 583 0
-582 584 0
-583 584 0
582 583 -584 0
-407 -585 0
584 -585 0
407 -584 585 0
-578 586 0
-585 586 0
578 585 -586 0
-304 -587 0
586 -587 0
304 -586 587 0
-571 588 0
-587 588 0
571 587 -588 0
588 -589 0
-425 -589 0
-588 425 589 0
588 -590 0
425 -590 0
-588 -425 590 0
-589 591 0
-590 591 0
589 590 -591 0
303 -592 0
591 -592 0
-303 -591 592 0
428 -593 0
591 -593 0
-428 -591 593 0
430 -594 0
591 -594 0
-430 -591 594 0
432 -595 0
591 -595 0
-432 -591 595 0
-432 -596 0
588 -596 0
432 -588 596 0
-595 597 0
-596 597 0
595 596 -597 0
-430 -598 0
597 -598 0
430 -597 598 0
-594 599 0
-598 599 0
594 598 -599 0
-428 -600 0
599 -600 0
428 -599 600 0
-593 601 0
-600 601 0
593 600 -601 0
-303 -602 0
601 -602 0
303 -601 602 0
-592 603 0
-602 603 0
592 602 -603 0
-523 -222 -604 0
523 222 -604 0
-523 222 604 0
523 -222 604 0
-603 -302 -605 0
603 302 -605 0
-603 302 605 0
603 -302 605 0
-604 -606 0
-605 -606 0
441 -606 0
604 605 -441 606 0
-140 606 0
